Solver command line: ['C:\\gurobi1002\\win64\\bin\\gurobi.bat']

Set parameter Username
Academic license - for non-commercial use only - expires 2024-08-20
Read LP format model from file C:\Users\mhafeman\AppData\Local\Temp\tmptp2yqb8v.pyomo.lp
Reading time = 0.04 seconds
obj: 7898 rows, 7223 columns, 18635 nonzeros
Gurobi Optimizer version 10.0.2 build v10.0.2rc0 (win64)

CPU model: AMD Ryzen 7 3800X 8-Core Processor, instruction set [SSE2|AVX|AVX2]
Thread count: 8 physical cores, 16 logical processors, using up to 16 threads

Optimize a model with 7898 rows, 7223 columns and 18635 nonzeros
Model fingerprint: 0x9c95bdb4
Model has 335 quadratic constraints
Variable types: 5880 continuous, 1343 integer (1008 binary)
Coefficient statistics:
  Matrix range     [1e-04, 3e+02]
  QMatrix range    [1e+00, 1e+00]
  QLMatrix range   [3e+00, 3e+00]
  Objective range  [4e+01, 4e+02]
  Bounds range     [1e+00, 3e+00]
  RHS range        [3e-03, 1e+03]
Presolve removed 6202 rows and 5515 columns
Presolve time: 0.03s
Presolved: 2368 rows, 1876 columns, 5941 nonzeros
Variable types: 1016 continuous, 860 integer (853 binary)
Found heuristic solution: objective 432893.18746
Found heuristic solution: objective 417181.78746
Found heuristic solution: objective 154065.41488

Root relaxation: objective -2.934073e+05, 585 iterations, 0.00 seconds (0.00 work units)

    Nodes    |    Current Node    |     Objective Bounds      |     Work
 Expl Unexpl |  Obj  Depth IntInf | Incumbent    BestBd   Gap | It/Node Time

     0     0 -293407.28    0   12 154065.415 -293407.28   290%     -    0s
H    0     0                    -286819.6070 -293407.28  2.30%     -    0s
H    0     0                    -287926.1692 -293407.28  1.90%     -    0s
H    0     0                    -288734.9028 -293407.28  1.62%     -    0s
H    0     0                    -291096.1341 -293407.28  0.79%     -    0s
*    0     0               0    -293407.2787 -293407.28  0.00%     -    0s

Cutting planes:
  Cover: 11
  Implied bound: 16
  Clique: 1
  Flow cover: 1
  Relax-and-lift: 7

Explored 1 nodes (731 simplex iterations) in 0.07 seconds (0.05 work units)
Thread count was 16 (of 16 available processors)

Solution count 8: -293407 -291096 -288735 ... 432893
No other solutions better than -293407

Optimal solution found (tolerance 1.00e-04)
Best objective -2.934072787071e+05, best bound -2.934072787071e+05, gap 0.0000%

